c 
c MolecularSimulation 0.9.3
c Simulation written: Jan 13 2012 -- 15:17:57
c Test: Distribution
c Input: ./data/testCNF/SWEEP_R1_K3_N20_M12_S002.cnf
c 
s SATISFIABLE
v 1 2 3 -4 10 14 15 17 -18 0
c algorithmTime:  4
c solutionMemory: 81036
c mixCount:       33
c extractCount:   0
c appendCount:    195631
c splitCount:     33
c spliceCount:    94985
c purifyCount:    11
c 
